VACCINE = Vaccine(1..3);
m = 24;
age = [ADULT, AGED, SENIOR, CHILD, ADULT, ADULT, ANCIENT, BABY, AGED, BABY, AGED, YOUTH, ANCIENT, SENIOR, YOUTH, ANCIENT, CHILD, AGED, AGED, SENIOR, SENIOR, ANCIENT, ADULT, CHILD];
gender = [MALE, FEMALE, MALE, OTHER, FEMALE, FEMALE, MALE, FEMALE, MALE, OTHER, FEMALE, OTHER, FEMALE, MALE, FEMALE, FEMALE, FEMALE, FEMALE, FEMALE, MALE, OTHER, MALE, MALE, FEMALE];
health = [POOR, GOOD, COMPROMISED, POOR, COMPROMISED, POOR, GOOD, GOOD, GOOD, GOOD, GOOD, POOR, GOOD, COMPROMISED, COMPROMISED, COMPROMISED, POOR, COMPROMISED, GOOD, GOOD, POOR, COMPROMISED, POOR, POOR];
exposure = [EXTREME, HIGH, LOW, AVERAGE, LOW, LOW, EXTREME, AVERAGE, EXTREME, LOW, LOW, HIGH, LOW, LOW, AVERAGE, HIGH, AVERAGE, EXTREME, AVERAGE, LOW, AVERAGE, EXTREME, EXTREME, EXTREME];
size = [6, 3, 6, 5, 7, 4, 5, 8, 5, 3, 8, 3, 3, 6, 7, 5, 5, 8, 7, 7, 8, 8, 3, 4];
minsize = 3;
age_group_min = [0, 1, 0, 1, 0, 1, 0];
age_group_max = [10, 19, 19, 10, 18, 11, 16];
max_people_diff = 70;
max_share_vaccines = 3;
health_information = {2, 4, 10};
exposure_information = {5, 10, 17, 23};